GLPSOL--GLPK LP/MIP Solver 5.0
Parameter(s) specified in the command line:
 --lp ../modeles/20_264.lp --log 20_264.log
Reading problem data from '../modeles/20_264.lp'...
5361 rows, 10600 columns, 37020 non-zeros
5280 integer variables, all of which are binary
15987 lines were read
GLPK Integer Optimizer 5.0
5361 rows, 10600 columns, 37020 non-zeros
5280 integer variables, all of which are binary
Preprocessing...
5240 constraint coefficient(s) were reduced
5361 rows, 10580 columns, 37000 non-zeros
5280 integer variables, all of which are binary
Scaling...
 A: min|aij| =  2.296e-04  max|aij| =  4.000e+00  ratio =  1.742e+04
GM: min|aij| =  8.704e-02  max|aij| =  1.149e+01  ratio =  1.320e+02
EQ: min|aij| =  7.576e-03  max|aij| =  1.000e+00  ratio =  1.320e+02
2N: min|aij| =  3.673e-03  max|aij| =  1.708e+00  ratio =  4.650e+02
Constructing initial basis...
Size of triangular part is 5361
Solving LP relaxation...
GLPK Simplex Optimizer 5.0
5361 rows, 10580 columns, 37000 non-zeros
      0: obj =   4.000000000e+01 inf =   8.260e+02 (41)
Perturbing LP to avoid stalling [199]...
    419: obj =   4.540366788e-02 inf =   0.000e+00 (0)
Removing LP perturbation [994]...
*   994: obj =  -4.470219436e+00 inf =   6.302e-13 (0) 1
OPTIMAL LP SOLUTION FOUND
Integer optimization begins...
Long-step dual simplex will be used
+   994: mip =     not found yet >=              -inf        (1; 0)
+  1134: >>>>>  -4.470219436e+00 >=  -4.470219436e+00 < 0.1% (140; 0)
+  1134: mip =  -4.470219436e+00 >=     tree is empty   0.0% (0; 279)
INTEGER OPTIMAL SOLUTION FOUND
Time used:   2.1 secs
Memory used: 15.3 Mb (16062790 bytes)
